sat
(:max-memory         18.63
 :memory             18.53
 :nlsat-arith-var    3
 :nlsat-atoms        11
 :nlsat-bool-var     1
 :nlsat-clauses      10
 :nlsat-conflicts    1
 :nlsat-propagations 14
 :nlsat-stages       5
 :num-allocs         84874
 :rlimit-count       6827
 :time               0.00
 :total-time         0.02)
